Welcome to the CBC MILP Solver 
Version: 2.10.7 
Build Date: Feb 14 2022 

command line - cbc inputs/new_no_tr/order/triang10_1_tiers_input.lp sec 1800 solve solu solutions/new_no_tr/triang10_1_tiers_input.lp (default strategy 1)
seconds was changed from 1e+100 to 1800
Continuous objective value is 279.718 - 16.96 seconds
Cgl0002I 253 variables fixed
Cgl0003I 0 fixed, 33 tightened bounds, 2654 strengthened rows, 0 substitutions
Cgl0003I 0 fixed, 28 tightened bounds, 1385 strengthened rows, 0 substitutions
Cgl0003I 0 fixed, 38 tightened bounds, 524 strengthened rows, 0 substitutions
Cgl0003I 0 fixed, 21 tightened bounds, 250 strengthened rows, 0 substitutions
Cgl0003I 0 fixed, 19 tightened bounds, 130 strengthened rows, 0 substitutions
Cgl0003I 0 fixed, 12 tightened bounds, 95 strengthened rows, 0 substitutions
Cgl0003I 0 fixed, 13 tightened bounds, 69 strengthened rows, 0 substitutions
Cgl0003I 0 fixed, 9 tightened bounds, 34 strengthened rows, 0 substitutions
Cgl0003I 0 fixed, 7 tightened bounds, 31 strengthened rows, 0 substitutions
Cgl0004I processed model has 12052 rows, 4026 columns (4026 integer (3970 of which binary)) and 41652 elements
Cutoff increment increased from 1e-05 to 0.9999
Cbc0045I 1 integer variables out of 4026 objects (4026 integer) have cost of 1 - high priority
Cbc0045I branch on satisfied Y create fake objective Y random cost Y
Cbc0038I Initial state - 2061 integers unsatisfied sum - 621.817
Cbc0038I Pass   1: (48.76 seconds) suminf.  285.04435 (1498) obj. 508.861 iterations 7757
Cbc0038I Pass   2: (52.00 seconds) suminf.  189.43637 (1813) obj. 538.785 iterations 3903
Cbc0038I Pass   3: (53.77 seconds) suminf.  165.17327 (1950) obj. 552.792 iterations 2077
Cbc0038I Pass   4: (55.17 seconds) suminf.  156.13968 (2118) obj. 557.735 iterations 1585
Cbc0038I Pass   5: (56.37 seconds) suminf.  152.05893 (2131) obj. 561.208 iterations 1329
Cbc0038I Pass   6: (57.13 seconds) suminf.  136.19799 (2140) obj. 562.96 iterations 762
Cbc0038I Pass   7: (57.49 seconds) suminf.  132.49408 (2137) obj. 563.485 iterations 336
Cbc0038I Pass   8: (58.35 seconds) suminf.  116.20320 (2012) obj. 565.433 iterations 1035
Cbc0038I Pass   9: (58.72 seconds) suminf.  115.15295 (2039) obj. 565.433 iterations 453
Cbc0038I Pass  10: (59.24 seconds) suminf.  113.27454 (2043) obj. 565.433 iterations 592
Cbc0038I Pass  11: (59.45 seconds) suminf.  112.90447 (2053) obj. 565.433 iterations 241
Cbc0038I Pass  12: (60.20 seconds) suminf.  109.28758 (2075) obj. 579.499 iterations 1100
Cbc0038I Pass  13: (60.52 seconds) suminf.  106.32187 (2087) obj. 585.63 iterations 472
Cbc0038I Pass  14: (60.92 seconds) suminf.  104.59709 (2097) obj. 590.797 iterations 461
Cbc0038I Pass  15: (62.22 seconds) suminf.  102.97202 (2110) obj. 600.295 iterations 1745
Cbc0038I Pass  16: (62.86 seconds) suminf.  100.72792 (2120) obj. 590.633 iterations 853
Cbc0038I Pass  17: (63.28 seconds) suminf.   99.37535 (2145) obj. 589.104 iterations 530
Cbc0038I Pass  18: (64.42 seconds) suminf.  100.15801 (2076) obj. 590.454 iterations 1517
Cbc0038I Pass  19: (65.07 seconds) suminf.   98.03904 (2104) obj. 590.714 iterations 796
Cbc0038I Pass  20: (65.80 seconds) suminf.   99.96569 (2079) obj. 590.359 iterations 957
Cbc0038I Pass  21: (66.47 seconds) suminf.   98.37777 (2083) obj. 588.969 iterations 877
Cbc0038I Pass  22: (67.18 seconds) suminf.  100.50196 (2075) obj. 590.442 iterations 924
Cbc0038I Pass  23: (67.71 seconds) suminf.   98.07133 (2071) obj. 591.047 iterations 683
Cbc0038I Pass  24: (68.44 seconds) suminf.   99.40583 (2089) obj. 592.288 iterations 1067
Cbc0038I Pass  25: (68.74 seconds) suminf.   98.26470 (2102) obj. 593.222 iterations 550
Cbc0038I Pass  26: (69.42 seconds) suminf.   99.47999 (2092) obj. 592.386 iterations 1102
Cbc0038I Pass  27: (70.02 seconds) suminf.   97.77464 (2106) obj. 592.501 iterations 903
Cbc0038I Pass  28: (70.21 seconds) suminf.   97.27606 (2108) obj. 591.932 iterations 237
Cbc0038I Pass  29: (70.89 seconds) suminf.   98.94423 (2063) obj. 590.617 iterations 1070
Cbc0038I Pass  30: (71.46 seconds) suminf.   97.79963 (2104) obj. 592.621 iterations 819
Cbc0038I Pass  31: (72.22 seconds) suminf.   98.51214 (2055) obj. 597.559 iterations 1288
Cbc0038I Pass  32: (72.76 seconds) suminf.   97.75867 (2067) obj. 612.541 iterations 838
Cbc0038I Pass  33: (73.44 seconds) suminf.   96.45454 (2097) obj. 613.811 iterations 1170
Cbc0038I Pass  34: (73.89 seconds) suminf.   95.52150 (2081) obj. 614.053 iterations 719
Cbc0038I Pass  35: (74.63 seconds) suminf.   97.03175 (2052) obj. 618.112 iterations 1207
Cbc0038I Pass  36: (75.06 seconds) suminf.   96.50281 (2110) obj. 617.534 iterations 662
Cbc0038I Pass  37: (76.00 seconds) suminf.   96.54214 (2053) obj. 614.452 iterations 1633
Cbc0038I Pass  38: (76.57 seconds) suminf.   95.12737 (2070) obj. 615.473 iterations 1021
Cbc0038I Pass  39: (77.32 seconds) suminf.   96.41242 (2045) obj. 617.145 iterations 1274
Cbc0038I Pass  40: (77.89 seconds) suminf.   95.27319 (2080) obj. 620.071 iterations 900
Cbc0038I Pass  41: (78.76 seconds) suminf.   96.90571 (2065) obj. 614.565 iterations 1336
Cbc0038I Pass  42: (79.25 seconds) suminf.   95.82991 (2055) obj. 614.498 iterations 694
Cbc0038I Pass  43: (80.11 seconds) suminf.   97.16476 (2096) obj. 617.389 iterations 1418
Cbc0038I Pass  44: (80.40 seconds) suminf.   96.61860 (2095) obj. 617.192 iterations 373
Cbc0038I Pass  45: (81.40 seconds) suminf.   95.99733 (2094) obj. 614.731 iterations 1553
Cbc0038I Pass  46: (81.88 seconds) suminf.   95.51768 (2069) obj. 615.424 iterations 749
Cbc0038I Pass  47: (82.68 seconds) suminf.   96.95117 (2011) obj. 618.477 iterations 1311
Cbc0038I Pass  48: (83.17 seconds) suminf.   95.59421 (2062) obj. 620.16 iterations 801
Cbc0038I Pass  49: (84.08 seconds) suminf.   96.74335 (2014) obj. 615.184 iterations 1611
Cbc0038I Pass  50: (84.60 seconds) suminf.   95.73010 (2073) obj. 615.402 iterations 921
Cbc0038I Pass  51: (85.39 seconds) suminf.   96.14676 (2093) obj. 620.148 iterations 1323
Cbc0038I Pass  52: (85.75 seconds) suminf.   95.80397 (2081) obj. 620.148 iterations 459
Cbc0038I Pass  53: (86.46 seconds) suminf.   96.24141 (2094) obj. 614.721 iterations 1112
Cbc0038I Pass  54: (86.80 seconds) suminf.   95.34645 (2094) obj. 615.46 iterations 485
Cbc0038I Pass  55: (87.64 seconds) suminf.   97.02384 (2011) obj. 618.465 iterations 1407
Cbc0038I Pass  56: (88.23 seconds) suminf.   95.20641 (2069) obj. 619.04 iterations 946
Cbc0038I Pass  57: (89.02 seconds) suminf.   96.60298 (2082) obj. 617.596 iterations 1338
Cbc0038I Pass  58: (89.44 seconds) suminf.   95.51768 (2069) obj. 615.424 iterations 604
Cbc0038I Pass  59: (90.15 seconds) suminf.   96.06535 (2049) obj. 620.955 iterations 1175
Cbc0038I Pass  60: (90.57 seconds) suminf.   95.59421 (2062) obj. 620.16 iterations 640
Cbc0038I Pass  61: (91.42 seconds) suminf.   96.09860 (2070) obj. 617.016 iterations 1447
Cbc0038I Pass  62: (93.23 seconds) suminf.  127.93851 (2092) obj. 640.124 iterations 3033
Cbc0038I Pass  63: (94.76 seconds) suminf.  102.48527 (1982) obj. 640.269 iterations 2486
Cbc0038I Pass  64: (95.22 seconds) suminf.  100.44727 (2021) obj. 683.556 iterations 715
Cbc0038I Pass  65: (95.29 seconds) suminf.  100.36405 (2017) obj. 683.554 iterations 117
Cbc0038I Pass  66: (96.28 seconds) suminf.  101.91234 (2011) obj. 689.336 iterations 1656
Cbc0038I Pass  67: (96.64 seconds) suminf.  100.23054 (2009) obj. 689.735 iterations 619
Cbc0038I Pass  68: (96.81 seconds) suminf.   99.94320 (1977) obj. 689.735 iterations 259
Cbc0038I Pass  69: (97.60 seconds) suminf.  100.17321 (2062) obj. 684.649 iterations 1232
Cbc0038I Pass  70: (98.09 seconds) suminf.   99.02614 (2061) obj. 682.685 iterations 674
Cbc0038I Pass  71: (98.88 seconds) suminf.  100.07156 (2004) obj. 688.171 iterations 1398
Cbc0038I Pass  72: (99.35 seconds) suminf.   98.10871 (2027) obj. 689.011 iterations 813
Cbc0038I Pass  73: (100.18 seconds) suminf.  100.02160 (2010) obj. 691.64 iterations 1327
Cbc0038I Pass  74: (100.70 seconds) suminf.   97.72884 (2062) obj. 667.257 iterations 778
Cbc0038I Pass  75: (100.93 seconds) suminf.   97.43026 (2051) obj. 665.398 iterations 326
Cbc0038I Pass  76: (101.56 seconds) suminf.   97.15367 (2008) obj. 661.426 iterations 1086
Cbc0038I Pass  77: (101.86 seconds) suminf.   96.37998 (2038) obj. 661.426 iterations 517
Cbc0038I Pass  78: (102.49 seconds) suminf.   97.45217 (2039) obj. 661.058 iterations 1042
Cbc0038I Pass  79: (102.89 seconds) suminf.   96.31774 (2042) obj. 663.795 iterations 690
Cbc0038I Pass  80: (103.44 seconds) suminf.   96.91977 (2013) obj. 661.426 iterations 918
Cbc0038I Pass  81: (103.68 seconds) suminf.   96.55538 (2031) obj. 661.426 iterations 407
Cbc0038I Pass  82: (104.34 seconds) suminf.   97.90183 (2024) obj. 663.794 iterations 1058
Cbc0038I Pass  83: (104.89 seconds) suminf.   96.29067 (2050) obj. 665.964 iterations 819
Cbc0038I Pass  84: (105.49 seconds) suminf.   97.08388 (1996) obj. 661.426 iterations 956
Cbc0038I Pass  85: (105.91 seconds) suminf.   96.22795 (2049) obj. 661.265 iterations 694
Cbc0038I Pass  86: (106.61 seconds) suminf.   97.99480 (2039) obj. 664.276 iterations 1167
Cbc0038I Pass  87: (107.24 seconds) suminf.   96.25609 (2050) obj. 662.266 iterations 941
Cbc0038I Pass  88: (108.03 seconds) suminf.   97.93335 (2133) obj. 661.426 iterations 1232
Cbc0038I Pass  89: (108.73 seconds) suminf.   96.29051 (2021) obj. 662.286 iterations 1140
Cbc0038I Pass  90: (109.46 seconds) suminf.   97.83871 (2016) obj. 663.794 iterations 1100
Cbc0038I Pass  91: (110.01 seconds) suminf.   96.67340 (2016) obj. 662.266 iterations 813
Cbc0038I Pass  92: (110.20 seconds) suminf.   96.48095 (2008) obj. 662.266 iterations 261
Cbc0038I Pass  93: (110.79 seconds) suminf.   97.19787 (2005) obj. 661.592 iterations 919
Cbc0038I Pass  94: (111.08 seconds) suminf.   96.29051 (2021) obj. 662.286 iterations 447
Cbc0038I Pass  95: (111.83 seconds) suminf.   97.84981 (2015) obj. 663.794 iterations 1215
Cbc0038I Pass  96: (112.26 seconds) suminf.   96.67340 (2016) obj. 662.266 iterations 697
Cbc0038I Pass  97: (112.46 seconds) suminf.   96.48095 (2008) obj. 662.266 iterations 278
Cbc0038I Pass  98: (113.14 seconds) suminf.   97.78670 (2049) obj. 661.426 iterations 1101
Cbc0038I Pass  99: (113.70 seconds) suminf.   96.16849 (2008) obj. 662.286 iterations 866
Cbc0038I Pass 100: (114.78 seconds) suminf.  121.17645 (1987) obj. 661.8 iterations 2083
Cbc0038I No solution found this major pass
Cbc0038I Before mini branch and bound, 520 integers at bound fixed and 0 continuous
Cbc0038I Full problem 12052 rows 4026 columns, reduced to 10931 rows 3493 columns - too large
Cbc0038I Mini branch and bound did not improve solution (115.18 seconds)
Cbc0038I After 115.18 seconds - Feasibility pump exiting - took 73.16 seconds
Cbc0031I 32 added rows had average density of 9.84375
Cbc0013I At root node, 32 cuts changed objective from 280.11486 to 307 in 10 passes
Cbc0014I Cut generator 0 (Probing) - 15 row cuts average 4.5 elements, 11 column cuts (11 active)  in 0.628 seconds - new frequency is 1
Cbc0014I Cut generator 1 (Gomory) - 58 row cuts average 9.6 elements, 0 column cuts (0 active)  in 2.844 seconds - new frequency is 1
Cbc0014I Cut generator 2 (Knapsack) - 0 row cuts average 0.0 elements, 0 column cuts (0 active)  in 0.038 seconds - new frequency is -100
Cbc0014I Cut generator 3 (Clique) - 0 row cuts average 0.0 elements, 0 column cuts (0 active)  in 0.160 seconds - new frequency is -100
Cbc0014I Cut generator 4 (MixedIntegerRounding2) - 0 row cuts average 0.0 elements, 0 column cuts (0 active)  in 0.056 seconds - new frequency is -100
Cbc0014I Cut generator 5 (FlowCover) - 0 row cuts average 0.0 elements, 0 column cuts (0 active)  in 0.032 seconds - new frequency is -100
Cbc0014I Cut generator 6 (TwoMirCuts) - 101 row cuts average 12.2 elements, 0 column cuts (0 active)  in 1.785 seconds - new frequency is 1
Cbc0014I Cut generator 7 (ZeroHalf) - 1 row cuts average 101.0 elements, 0 column cuts (0 active)  in 0.383 seconds - new frequency is -100
Cbc0010I After 0 nodes, 1 on tree, 1e+50 best solution, best possible 307 (216.39 seconds)
Cbc0010I After 100 nodes, 48 on tree, 1e+50 best solution, best possible 309 (1294.45 seconds)
Cbc0020I Exiting on maximum time
Cbc0005I Partial search - best objective 1e+50 (best possible 309), took 1472609 iterations and 152 nodes (1780.46 seconds)
Cbc0032I Strong branching done 1636 times (149777 iterations), fathomed 1 nodes and fixed 186 variables
Cbc0035I Maximum depth 78, 0 variables fixed on reduced cost
Cuts at root node changed objective from 280.115 to 307
Probing was tried 53 times and created 385 cuts of which 0 were active after adding rounds of cuts (0.856 seconds)
Gomory was tried 50 times and created 202 cuts of which 0 were active after adding rounds of cuts (4.591 seconds)
Knapsack was tried 10 times and created 0 cuts of which 0 were active after adding rounds of cuts (0.038 seconds)
Clique was tried 10 times and created 0 cuts of which 0 were active after adding rounds of cuts (0.160 seconds)
MixedIntegerRounding2 was tried 10 times and created 0 cuts of which 0 were active after adding rounds of cuts (0.056 seconds)
FlowCover was tried 10 times and created 0 cuts of which 0 were active after adding rounds of cuts (0.032 seconds)
TwoMirCuts was tried 50 times and created 904 cuts of which 0 were active after adding rounds of cuts (2.774 seconds)
ZeroHalf was tried 1 times and created 1 cuts of which 0 were active after adding rounds of cuts (0.383 seconds)
ImplicationCuts was tried 18 times and created 15 cuts of which 0 were active after adding rounds of cuts (0.004 seconds)

Result - Stopped on time limit

No feasible solution found
Lower bound:                    309.000
Enumerated nodes:               152
Total iterations:               1472609
Time (CPU seconds):             1780.46
Time (Wallclock seconds):       1782.29

Total time (CPU seconds):       1780.51   (Wallclock seconds):       1782.34

